benchmarks/bfuzz0/126542564520703324237668116961587231790.smt2
(set-logic QF_FP)
(declare-const x0 (_ FloatingPoint 11 53))
(assert (fp.geq (fp.div RNE (fp.neg x0) (fp.div RNE x0 x0)) (fp.sub RNE (fp.sub RNE x0 x0) (fp.sub RNE x0 x0))))
(assert (fp.leq (fp.add RNE (fp.div RNE x0 x0) (fp.sub RNE x0 x0)) (fp.mul RNE (fp.sub RNE x0 x0) (fp.neg x0))))
(assert (fp.lt (fp.mul RNE (fp.add RNE x0 x0) (fp.div RNE x0 x0)) (fp.sub RNE (fp.mul RNE x0 x0) (fp.neg x0))))
(assert (fp.lt (fp.neg (fp.add RNE x0 x0)) (fp.mul RNE (fp.add RNE x0 x0) (fp.div RNE x0 x0))))
(check-sat)
