db/data/126542564520703324237668116961587231790.z3.out
unsat
-------------------
8.713035661
